p cnf 130 46
-20 -122 0
-4 -9 -10 -12 -16 -21 -22 -25 -26 -27 -33 -38 -39 -42 -43 -44 -46 -47 -49 -50 -54 -59 -65 -66 -68 -70 -71 -73 -75 -79 -80 -83 -93 -94 -98 -100 -103 -108 -109 -112 -114 -119 -120 -122 -127 -129 -134 -137 -138 -144 -146 -151 -153 -155 -159 -166 -169 -173 -174 -179 -181 -185 -194 0
-4 -7 -9 -10 -12 -14 -15 -16 -21 -23 -25 -26 -27 -34 -35 -38 -39 -43 -44 -49 -50 -53 -54 -57 -59 -61 -63 -65 -66 -68 -69 -70 -71 -74 -75 -78 -81 -83 -86 -87 -91 -93 -94 -95 -99 -100 -103 -108 -110 -111 -112 -113 -114 -117 -119 -120 -122 -123 -125 -128 -129 -135 -136 -137 -138 -141 -145 -146 -152 -153 -154 -155 -157 -167 -168 -169 -171 -172 -173 -174 -180 -181 -183 -184 -185 -189 -190 -193 -194 -199 -202 -207 0
-12 -21 -27 -30 -38 -42 -44 -50 -58 -64 -66 -68 -73 -80 -82 -98 -103 -114 -122 -146 0
-7 -12 -14 -15 -21 -22 -23 -27 -30 -33 -34 -35 -38 -44 -46 -47 -50 -53 -57 -58 -61 -63 -64 -66 -68 -69 -74 -78 -79 -81 -82 -86 -87 -91 -95 -99 -103 -109 -110 -111 -113 -114 -117 -122 -123 -125 -127 -128 -134 -135 -136 -141 -144 -145 -146 -151 -152 -154 -157 -159 -166 -167 -168 -171 -172 -179 -180 -183 -184 -189 -190 -193 -199 -202 -207 0
-7 -12 -14 -15 -16 -21 -22 -23 -26 -27 -30 -33 -34 -35 -38 -44 -46 -47 -49 -50 -53 -54 -57 -58 -61 -63 -64 -66 -68 -69 -71 -74 -78 -79 -81 -82 -86 -87 -91 -99 -103 -108 -109 -110 -111 -112 -113 -114 -117 -122 -123 -125 -127 -128 -134 -135 -136 -137 -141 -144 -145 -146 -151 -152 -154 -159 -166 -167 -168 -169 -171 -172 -179 -180 -183 -184 -185 -189 -190 -193 -199 -202 -207 0
-4 -7 -9 -10 -12 -14 -15 -16 -21 -22 -23 -25 -26 -27 -34 -35 -38 -39 -43 -44 -46 -47 -49 -50 -53 -54 -57 -59 -61 -63 -65 -66 -68 -69 -70 -71 -74 -75 -79 -81 -83 -86 -87 -91 -93 -94 -95 -99 -100 -103 -108 -110 -111 -112 -114 -117 -119 -120 -122 -123 -125 -127 -128 -129 -135 -136 -137 -138 -145 -146 -151 -152 -153 -154 -155 -157 -159 -167 -168 -169 -172 -173 -174 -179 -180 -181 -183 -184 -185 -189 -190 -193 -194 -199 -202 -207 0
-4 -9 -10 -12 -16 -21 -22 -23 -25 -26 -27 -33 -35 -38 -39 -42 -43 -44 -46 -47 -49 -50 -54 -57 -59 -63 -65 -66 -68 -69 -70 -71 -73 -74 -75 -79 -80 -81 -83 -87 -91 -93 -94 -95 -98 -99 -100 -103 -108 -109 -110 -111 -112 -114 -117 -119 -120 -122 -125 -127 -128 -129 -134 -135 -136 -137 -138 -145 -146 -151 -152 -153 -154 -155 -157 -159 -167 -168 -169 -172 -173 -174 -179 -180 -181 -183 -184 -185 -189 -190 -193 -194 -199 -202 -207 0
-4 -7 -9 -10 -12 -14 -15 -16 -21 -22 -23 -25 -26 -27 -30 -33 -34 -35 -38 -39 -43 -44 -46 -47 -49 -50 -53 -54 -57 -58 -59 -63 -64 -65 -66 -68 -69 -70 -71 -74 -75 -78 -79 -81 -82 -83 -86 -87 -91 -93 -94 -95 -99 -100 -103 -108 -109 -110 -111 -112 -113 -114 -117 -119 -120 -122 -125 -127 -128 -129 -134 -135 -136 -137 -138 -141 -145 -146 -151 -152 -153 -154 -155 -157 -159 -167 -168 -169 -171 -172 -173 -174 -179 -180 -181 -183 -184 -185 -189 -190 -193 -194 -199 -202 -207 0
-7 -12 -14 -15 -16 -21 -22 -23 -26 -27 -30 -33 -34 -35 -38 -43 -44 -46 -47 -49 -50 -53 -54 -57 -58 -59 -61 -63 -64 -65 -66 -68 -69 -71 -74 -75 -78 -79 -81 -82 -83 -86 -87 -91 -93 -94 -95 -99 -100 -103 -108 -109 -110 -111 -112 -113 -114 -117 -119 -120 -122 -123 -125 -127 -128 -129 -134 -135 -136 -137 -138 -141 -144 -145 -146 -151 -152 -153 -154 -155 -157 -159 -166 -167 -168 -169 -171 -173 -174 -179 -180 -181 -183 -184 -185 -190 -193 -194 -199 0
-2 -4 -6 -7 -10 -15 -18 -29 -30 -31 -42 -43 -44 -45 -50 -51 -57 -58 -59 -64 -65 -66 -67 -68 -73 -74 -77 -80 -81 -82 -83 -85 -94 -98 -99 -102 -103 -104 -111 -114 -120 -122 -130 -131 -136 -140 -146 -162 0
-2 -6 -9 -14 -16 -18 -23 -25 -26 -29 -31 -33 -34 -35 -39 -44 -45 -47 -49 -50 -51 -53 -54 -61 -63 -66 -67 -68 -69 -70 -71 -75 -77 -78 -79 -85 -86 -87 -91 -93 -100 -102 -103 -104 -108 -110 -112 -113 -114 -117 -119 -122 -123 -125 -128 -129 -130 -131 -135 -137 -138 -140 -141 -144 -145 -146 -152 -153 -154 -155 -162 -166 -167 -168 -169 -171 -172 -173 -174 -180 -181 -183 -184 -185 -189 -190 -193 -194 -199 -202 -207 0
-2 -4 -6 -7 -9 -10 -14 -15 -16 -18 -22 -23 -25 -29 -31 -33 -34 -39 -44 -45 -46 -50 -51 -53 -54 -59 -61 -66 -67 -68 -69 -70 -74 -75 -77 -83 -85 -86 -91 -93 -94 -99 -100 -102 -103 -104 -110 -111 -112 -114 -117 -119 -120 -122 -123 -127 -128 -129 -130 -131 -135 -136 -137 -138 -140 -144 -145 -146 -151 -152 -153 -154 -155 -159 -162 -166 -167 -168 -169 -172 -173 -174 -179 -180 -181 -183 -184 -185 -189 -190 -193 -194 -199 -202 -207 0
-2 -4 -6 -7 -9 -10 -14 -15 -16 -18 -23 -25 -29 -31 -34 -39 -44 -45 -50 -51 -53 -54 -59 -61 -66 -67 -68 -69 -70 -74 -75 -77 -78 -83 -85 -86 -91 -93 -94 -95 -99 -100 -102 -103 -104 -110 -111 -112 -113 -114 -117 -119 -120 -122 -123 -128 -129 -130 -131 -135 -136 -137 -138 -140 -141 -145 -146 -152 -153 -154 -155 -157 -162 -167 -168 -169 -171 -172 -173 -174 -180 -181 -183 -184 -185 -189 -190 -193 -194 -199 -202 -207 0
-2 -6 -9 -14 -16 -18 -23 -25 -26 -29 -31 -34 -35 -39 -44 -45 -49 -50 -51 -53 -54 -61 -63 -66 -67 -68 -69 -70 -71 -75 -77 -78 -85 -86 -87 -91 -93 -95 -100 -102 -103 -104 -108 -110 -112 -113 -114 -117 -119 -122 -123 -125 -128 -129 -130 -131 -135 -137 -138 -140 -141 -145 -146 -152 -153 -154 -155 -157 -162 -167 -168 -169 -171 -172 -173 -174 -180 -181 -183 -184 -185 -189 -190 -193 -194 -199 -202 -207 0
-2 -4 -6 -7 -9 -10 -15 -16 -18 -22 -25 -29 -31 -33 -39 -42 -44 -45 -46 -50 -51 -54 -57 -59 -66 -67 -68 -70 -73 -74 -75 -77 -80 -81 -83 -85 -93 -94 -98 -99 -100 -102 -103 -104 -109 -111 -112 -114 -119 -120 -122 -127 -129 -130 -131 -134 -136 -137 -138 -140 -144 -146 -151 -153 -155 -159 -162 -166 -169 -173 -174 -179 -181 -185 -194 0
-2 -4 -6 -10 -14 -18 -22 -23 -29 -30 -31 -33 -34 -35 -43 -44 -45 -46 -47 -50 -51 -53 -58 -59 -61 -63 -64 -65 -66 -67 -68 -69 -77 -78 -79 -82 -83 -85 -86 -87 -91 -94 -95 -102 -103 -104 -109 -110 -113 -114 -117 -120 -122 -123 -125 -127 -128 -130 -131 -134 -135 -140 -141 -144 -145 -146 -151 -152 -154 -157 -159 -162 -166 -167 -168 -171 -172 -179 -180 -183 -184 -189 -190 -193 -199 -202 -207 0
-2 -4 -6 -10 -14 -18 -22 -23 -29 -30 -31 -33 -34 -35 -43 -44 -45 -46 -47 -50 -51 -53 -58 -59 -61 -63 -64 -65 -66 -67 -68 -69 -75 -77 -78 -79 -82 -83 -85 -86 -87 -91 -93 -94 -95 -100 -102 -103 -104 -109 -110 -112 -113 -114 -117 -119 -120 -122 -123 -125 -127 -128 -129 -130 -131 -134 -135 -137 -138 -140 -141 -144 -145 -146 -151 -152 -153 -154 -155 -157 -159 -162 -166 -167 -168 -169 -171 -173 -174 -179 -180 -181 -183 -184 -185 -190 -193 -194 -199 0
-2 -4 -6 -7 -10 -14 -15 -18 -22 -23 -29 -30 -31 -33 -34 -43 -44 -45 -46 -50 -51 -53 -58 -59 -61 -64 -65 -66 -67 -68 -69 -74 -75 -77 -78 -82 -83 -85 -86 -91 -93 -94 -95 -99 -100 -102 -103 -104 -109 -110 -111 -112 -113 -114 -117 -119 -120 -122 -123 -127 -128 -129 -130 -131 -134 -135 -136 -137 -138 -140 -141 -144 -145 -146 -151 -152 -153 -154 -155 -157 -159 -162 -166 -167 -168 -169 -171 -173 -174 -179 -180 -181 -183 -184 -185 -190 -193 -194 -199 0
-2 -6 -7 -9 -14 -15 -16 -18 -22 -23 -25 -26 -29 -31 -33 -34 -39 -44 -45 -46 -47 -49 -50 -51 -53 -54 -61 -66 -67 -68 -69 -70 -71 -74 -75 -77 -79 -85 -86 -91 -93 -99 -100 -102 -103 -104 -108 -110 -111 -112 -114 -117 -119 -122 -123 -127 -128 -129 -130 -131 -135 -136 -137 -138 -140 -144 -145 -146 -151 -152 -153 -154 -155 -159 -162 -166 -167 -168 -169 -172 -173 -174 -179 -180 -181 -183 -184 -185 -189 -190 -193 -194 -199 -202 -207 0
-2 -6 -7 -9 -15 -16 -18 -22 -25 -26 -29 -31 -33 -39 -42 -44 -45 -46 -47 -49 -50 -51 -54 -57 -66 -67 -68 -70 -71 -73 -74 -75 -77 -79 -80 -81 -85 -93 -98 -99 -100 -102 -103 -104 -108 -109 -111 -112 -114 -119 -122 -127 -129 -130 -131 -134 -136 -137 -138 -140 -144 -146 -151 -153 -155 -159 -162 -166 -169 -173 -174 -179 -181 -185 -194 0
-4 -9 -10 -12 -16 -21 -22 -23 -25 -26 -27 -31 -33 -35 -38 -39 -42 -43 -44 -45 -46 -47 -49 -50 -51 -54 -59 -63 -65 -66 -67 -68 -69 -70 -71 -73 -75 -77 -79 -80 -83 -85 -87 -91 -93 -94 -95 -98 -100 -102 -103 -104 -108 -109 -110 -114 -117 -119 -120 -122 -125 -127 -128 -129 -130 -131 -134 -135 -138 -140 -144 -145 -146 -151 -152 -153 -154 -155 -157 -159 -162 -166 -167 -168 -172 -173 -174 -179 -180 -181 -183 -184 -189 -190 -193 -194 -199 -202 -207 0
-2 -4 -6 -7 -9 -10 -12 -14 -15 -18 -21 -25 -26 -27 -29 -31 -34 -35 -38 -39 -43 -44 -45 -49 -50 -51 -53 -57 -59 -61 -63 -65 -66 -67 -68 -70 -71 -74 -75 -77 -78 -81 -83 -85 -86 -87 -91 -93 -94 -95 -99 -100 -102 -103 -104 -108 -110 -111 -112 -113 -114 -117 -119 -120 -122 -123 -125 -128 -129 -130 -131 -135 -136 -137 -138 -140 -141 -145 -146 -152 -153 -154 -155 -157 -162 -167 -168 -169 -171 -172 -173 -174 -180 -181 -183 -184 -185 -189 -190 -193 -194 -199 -202 -207 0
-2 -4 -6 -7 -9 -10 -12 -15 -18 -21 -22 -25 -26 -27 -29 -31 -38 -39 -42 -43 -44 -45 -46 -47 -49 -50 -51 -57 -59 -65 -66 -67 -68 -70 -71 -73 -74 -75 -77 -79 -80 -81 -83 -85 -93 -94 -98 -99 -100 -102 -103 -104 -108 -109 -111 -112 -114 -119 -120 -122 -127 -129 -130 -131 -134 -136 -137 -138 -140 -144 -146 -151 -153 -155 -159 -162 -166 -169 -173 -174 -179 -181 -185 -194 0
-2 -4 -6 -9 -10 -12 -14 -18 -21 -22 -23 -25 -26 -27 -29 -31 -33 -34 -35 -38 -39 -42 -43 -44 -45 -46 -47 -49 -50 -51 -53 -59 -61 -63 -65 -66 -67 -68 -69 -70 -71 -73 -75 -77 -79 -80 -83 -85 -86 -87 -91 -93 -94 -95 -98 -100 -102 -103 -104 -108 -109 -110 -112 -114 -117 -119 -120 -122 -123 -125 -127 -128 -129 -130 -131 -134 -135 -137 -138 -140 -144 -145 -146 -151 -152 -153 -154 -155 -157 -159 -162 -166 -167 -168 -169 -172 -173 -174 -179 -180 -181 -183 -184 -185 -189 -190 -193 -194 -199 -202 -207 0
-2 -4 -6 -7 -9 -10 -12 -14 -15 -18 -21 -22 -25 -26 -27 -29 -31 -34 -35 -38 -39 -43 -44 -45 -46 -47 -49 -50 -51 -53 -57 -59 -61 -63 -65 -66 -67 -68 -70 -71 -74 -75 -77 -79 -81 -83 -85 -86 -87 -91 -93 -94 -95 -99 -100 -102 -103 -104 -108 -110 -111 -112 -114 -117 -119 -120 -122 -123 -125 -127 -128 -129 -130 -131 -135 -136 -137 -138 -140 -145 -146 -151 -152 -153 -154 -155 -157 -159 -162 -167 -168 -169 -172 -173 -174 -179 -180 -181 -183 -184 -185 -189 -190 -193 -194 -199 -202 -207 0
-4 -9 -10 -12 -16 -21 -22 -25 -26 -27 -31 -33 -38 -39 -42 -43 -44 -45 -46 -47 -49 -50 -51 -54 -57 -59 -65 -66 -67 -68 -70 -71 -73 -74 -75 -77 -79 -80 -81 -83 -85 -93 -94 -98 -99 -100 -102 -103 -104 -108 -109 -111 -114 -119 -120 -122 -127 -129 -130 -131 -134 -136 -138 -140 -146 -151 -153 -155 -159 -162 -173 -174 -179 -181 -194 0
-7 -12 -14 -15 -21 -22 -23 -27 -30 -31 -33 -34 -35 -38 -43 -44 -45 -46 -47 -50 -51 -53 -57 -58 -59 -61 -63 -64 -65 -66 -67 -68 -69 -74 -77 -78 -79 -81 -82 -83 -85 -86 -87 -91 -94 -95 -99 -102 -103 -104 -109 -110 -111 -113 -114 -117 -120 -122 -123 -125 -127 -130 -131 -134 -135 -136 -140 -141 -145 -146 -151 -154 -157 -159 -162 -167 -168 -171 -172 -179 -183 -184 -189 -190 -199 -202 -207 0
-4 -7 -9 -10 -12 -14 -15 -16 -21 -23 -25 -26 -27 -31 -34 -35 -38 -39 -43 -44 -45 -49 -50 -51 -53 -54 -57 -59 -61 -63 -65 -66 -67 -68 -69 -70 -71 -74 -75 -77 -78 -81 -83 -85 -86 -87 -91 -93 -94 -95 -99 -100 -102 -103 -104 -108 -110 -111 -113 -114 -117 -119 -120 -122 -123 -125 -129 -130 -131 -135 -136 -138 -140 -141 -145 -146 -153 -154 -155 -157 -162 -167 -168 -171 -172 -173 -174 -181 -183 -184 -189 -190 -194 -199 -202 -207 0
-2 -4 -6 -9 -10 -14 -16 -18 -22 -23 -25 -26 -29 -31 -33 -34 -35 -39 -44 -45 -46 -47 -49 -50 -51 -53 -54 -59 -61 -63 -66 -67 -68 -69 -70 -71 -75 -77 -79 -83 -85 -86 -87 -91 -93 -94 -95 -100 -102 -103 -104 -108 -110 -112 -114 -117 -119 -120 -122 -123 -125 -127 -128 -129 -130 -131 -135 -137 -138 -140 -144 -145 -146 -151 -152 -153 -154 -155 -157 -159 -162 -166 -167 -168 -169 -172 -173 -174 -179 -180 -181 -183 -184 -185 -189 -190 -193 -194 -199 -202 -207 0
-2 -4 -6 -7 -9 -10 -12 -14 -15 -18 -21 -22 -25 -26 -27 -29 -31 -34 -35 -38 -39 -42 -43 -44 -45 -46 -47 -49 -50 -51 -53 -57 -59 -61 -63 -65 -66 -67 -68 -70 -71 -73 -75 -77 -79 -80 -81 -83 -85 -86 -87 -91 -93 -94 -95 -98 -100 -102 -103 -104 -108 -109 -110 -112 -114 -117 -119 -120 -122 -123 -125 -127 -128 -129 -130 -131 -134 -135 -137 -138 -140 -144 -145 -146 -151 -152 -153 -154 -155 -157 -159 -162 -166 -167 -168 -169 -172 -173 -174 -179 -180 -181 -183 -184 -185 -189 -190 -193 -194 -199 -202 -207 0
-2 -4 -6 -7 -10 -12 -14 -15 -18 -21 -22 -27 -29 -30 -31 -34 -35 -38 -43 -44 -45 -46 -47 -50 -51 -53 -57 -58 -59 -61 -63 -64 -65 -66 -67 -68 -74 -77 -78 -79 -81 -82 -83 -85 -86 -87 -91 -94 -95 -99 -102 -103 -104 -109 -110 -111 -113 -114 -117 -120 -122 -123 -125 -127 -128 -130 -131 -134 -135 -136 -140 -141 -144 -145 -146 -151 -152 -154 -157 -159 -162 -166 -167 -168 -171 -172 -179 -180 -183 -184 -189 -190 -193 -199 -202 -207 0
-2 -4 -6 -7 -10 -14 -15 -18 -22 -23 -29 -30 -31 -33 -34 -43 -44 -45 -46 -50 -51 -53 -58 -59 -61 -64 -65 -66 -67 -68 -69 -74 -77 -78 -82 -83 -85 -86 -91 -94 -95 -99 -102 -103 -104 -109 -110 -111 -113 -114 -117 -120 -122 -123 -127 -128 -130 -131 -134 -135 -136 -140 -141 -144 -145 -146 -151 -152 -154 -157 -159 -162 -166 -167 -168 -171 -172 -179 -180 -183 -184 -189 -190 -193 -199 -202 -207 0
-2 -4 -6 -9 -10 -14 -16 -18 -22 -23 -25 -29 -30 -31 -33 -34 -35 -39 -43 -44 -45 -46 -47 -50 -51 -53 -54 -58 -59 -63 -64 -65 -66 -67 -68 -69 -70 -75 -77 -78 -79 -82 -83 -85 -86 -87 -91 -93 -94 -95 -100 -102 -103 -104 -109 -110 -112 -113 -114 -117 -119 -120 -122 -125 -127 -128 -129 -130 -131 -134 -135 -137 -138 -140 -141 -144 -145 -146 -151 -152 -153 -154 -155 -157 -159 -162 -166 -167 -168 -169 -171 -172 -173 -174 -179 -180 -181 -183 -184 -185 -189 -190 -193 -194 -199 -202 -207 0
-2 -4 -6 -7 -9 -10 -14 -15 -16 -18 -22 -23 -25 -29 -30 -31 -33 -34 -39 -43 -44 -45 -46 -50 -51 -53 -54 -58 -59 -64 -65 -66 -67 -68 -69 -70 -74 -75 -77 -78 -82 -83 -85 -86 -91 -93 -94 -95 -99 -100 -102 -103 -104 -109 -110 -111 -112 -113 -114 -117 -119 -120 -122 -127 -128 -129 -130 -131 -134 -135 -136 -137 -138 -140 -141 -144 -145 -146 -151 -152 -153 -154 -155 -157 -159 -162 -166 -167 -168 -169 -171 -172 -173 -174 -179 -180 -181 -183 -184 -185 -189 -190 -193 -194 -199 -202 -207 0
-2 -4 -6 -9 -10 -14 -16 -18 -22 -23 -25 -29 -31 -33 -34 -35 -39 -44 -45 -46 -47 -50 -51 -53 -54 -59 -61 -63 -66 -67 -68 -69 -70 -75 -77 -78 -79 -83 -85 -86 -87 -91 -93 -94 -95 -100 -102 -103 -104 -110 -112 -113 -114 -117 -119 -120 -122 -123 -125 -127 -128 -129 -130 -131 -135 -137 -138 -140 -141 -144 -145 -146 -151 -152 -153 -154 -155 -157 -159 -162 -166 -167 -168 -169 -171 -172 -173 -174 -179 -180 -181 -183 -184 -185 -189 -190 -193 -194 -199 -202 -207 0
-4 -7 -9 -10 -12 -14 -15 -16 -21 -22 -23 -25 -26 -27 -31 -34 -35 -38 -39 -43 -44 -45 -46 -47 -49 -50 -51 -53 -54 -57 -59 -61 -63 -65 -66 -67 -68 -69 -70 -71 -74 -75 -77 -79 -81 -83 -85 -86 -87 -91 -93 -94 -95 -99 -100 -102 -103 -104 -108 -110 -111 -114 -117 -119 -120 -122 -123 -125 -127 -129 -130 -131 -135 -136 -138 -140 -145 -146 -151 -153 -154 -155 -157 -159 -162 -167 -168 -172 -173 -174 -179 -181 -183 -184 -189 -190 -194 -199 -202 -207 0
-7 -12 -14 -15 -16 -21 -22 -23 -26 -27 -30 -33 -34 -35 -38 -43 -44 -46 -47 -49 -50 -53 -54 -57 -58 -59 -61 -63 -64 -65 -66 -68 -69 -71 -74 -75 -78 -79 -81 -82 -83 -86 -87 -91 -93 -94 -95 -99 -100 -103 -108 -109 -110 -111 -112 -113 -114 -117 -119 -120 -122 -123 -125 -127 -128 -129 -134 -135 -136 -137 -138 -141 -145 -146 -151 -152 -153 -154 -155 -157 -159 -167 -168 -169 -171 -172 -173 -174 -179 -180 -181 -183 -184 -185 -189 -190 -193 -194 -199 -202 -207 0
-7 -12 -14 -15 -16 -21 -22 -23 -26 -27 -30 -31 -33 -34 -35 -38 -43 -44 -45 -46 -47 -49 -50 -51 -53 -54 -57 -58 -59 -61 -63 -64 -65 -66 -67 -68 -69 -71 -74 -75 -77 -78 -79 -81 -82 -83 -85 -86 -87 -91 -93 -94 -99 -100 -102 -103 -104 -108 -109 -110 -111 -113 -114 -117 -119 -120 -122 -123 -125 -127 -129 -130 -131 -134 -135 -136 -138 -140 -141 -145 -146 -151 -153 -154 -155 -159 -162 -167 -168 -171 -173 -174 -179 -181 -183 -184 -190 -194 -199 0
-2 -4 -6 -7 -9 -10 -12 -14 -15 -18 -21 -22 -25 -26 -27 -29 -30 -31 -34 -35 -38 -39 -43 -44 -45 -46 -47 -49 -50 -51 -53 -57 -58 -63 -64 -65 -66 -67 -68 -70 -71 -74 -75 -77 -78 -79 -81 -82 -85 -86 -87 -91 -93 -99 -100 -102 -103 -104 -108 -109 -110 -111 -112 -113 -114 -117 -119 -122 -125 -127 -128 -129 -130 -131 -134 -135 -136 -137 -138 -140 -141 -144 -145 -146 -151 -152 -153 -154 -155 -159 -162 -166 -167 -168 -169 -171 -172 -173 -174 -179 -180 -181 -183 -184 -185 -189 -190 -193 -194 -199 -202 -207 0
-7 -12 -14 -15 -16 -21 -22 -23 -26 -27 -30 -31 -33 -34 -35 -38 -44 -45 -46 -47 -49 -50 -51 -53 -54 -57 -58 -61 -63 -64 -66 -67 -68 -69 -71 -74 -75 -77 -78 -79 -81 -82 -85 -86 -87 -91 -93 -99 -100 -102 -103 -104 -108 -109 -110 -111 -112 -113 -114 -117 -119 -122 -123 -125 -127 -129 -130 -131 -134 -135 -136 -137 -138 -140 -141 -144 -145 -146 -151 -153 -154 -155 -159 -162 -166 -167 -168 -169 -171 -173 -174 -179 -181 -183 -184 -185 -190 -194 -199 0
-4 -7 -9 -10 -12 -14 -15 -16 -21 -22 -23 -25 -26 -27 -30 -31 -33 -34 -35 -38 -39 -43 -44 -45 -46 -47 -49 -50 -51 -53 -54 -57 -58 -59 -63 -64 -65 -66 -67 -68 -69 -70 -71 -74 -75 -77 -78 -79 -81 -82 -83 -85 -86 -87 -91 -93 -94 -95 -99 -100 -102 -103 -104 -108 -109 -110 -111 -113 -114 -117 -119 -120 -122 -125 -127 -129 -130 -131 -134 -135 -136 -138 -140 -141 -145 -146 -151 -153 -154 -155 -157 -159 -162 -167 -168 -171 -172 -173 -174 -179 -181 -183 -184 -189 -190 -194 -199 -202 -207 0
-2 -6 -7 -9 -12 -14 -15 -16 -18 -21 -22 -25 -26 -27 -29 -30 -31 -33 -34 -35 -38 -39 -44 -45 -46 -47 -49 -50 -51 -53 -54 -57 -58 -63 -64 -66 -67 -68 -70 -71 -74 -75 -77 -78 -79 -81 -82 -85 -86 -87 -91 -93 -99 -100 -102 -103 -104 -108 -109 -110 -111 -112 -113 -114 -117 -119 -122 -125 -127 -128 -129 -130 -131 -134 -135 -136 -137 -138 -140 -141 -144 -145 -146 -151 -152 -153 -154 -155 -159 -162 -166 -167 -168 -169 -171 -172 -173 -174 -179 -180 -181 -183 -184 -185 -189 -190 -193 -194 -199 -202 -207 0
-2 -4 -6 -7 -9 -10 -14 -15 -16 -18 -22 -23 -25 -26 -29 -31 -34 -35 -39 -44 -45 -46 -47 -49 -50 -51 -53 -54 -59 -61 -63 -66 -67 -68 -69 -70 -71 -74 -75 -77 -79 -83 -85 -86 -87 -91 -93 -94 -95 -99 -100 -102 -103 -104 -108 -110 -111 -112 -114 -117 -119 -120 -122 -123 -125 -127 -128 -129 -130 -131 -135 -136 -137 -138 -140 -145 -146 -151 -152 -153 -154 -155 -157 -159 -162 -167 -168 -169 -172 -173 -174 -179 -180 -181 -183 -184 -185 -189 -190 -193 -194 -199 -202 -207 0
-2 -4 -6 -7 -10 -12 -14 -15 -18 -21 -22 -27 -29 -30 -31 -34 -35 -38 -43 -44 -45 -46 -47 -50 -51 -53 -57 -58 -59 -61 -63 -64 -65 -66 -67 -68 -74 -75 -77 -78 -79 -81 -82 -83 -85 -86 -87 -91 -93 -94 -95 -99 -100 -102 -103 -104 -109 -110 -111 -112 -113 -114 -117 -119 -120 -122 -123 -125 -127 -128 -129 -130 -131 -134 -135 -136 -137 -138 -140 -141 -144 -145 -146 -151 -152 -153 -154 -155 -157 -159 -162 -166 -167 -168 -169 -171 -173 -174 -179 -180 -181 -183 -184 -185 -190 -193 -194 -199 0
-7 -12 -14 -15 -21 -22 -23 -27 -30 -31 -33 -34 -35 -38 -43 -44 -45 -46 -47 -50 -51 -53 -57 -58 -59 -61 -63 -64 -65 -66 -67 -68 -69 -74 -75 -77 -78 -79 -81 -82 -83 -85 -86 -87 -91 -93 -94 -95 -99 -100 -102 -103 -104 -109 -110 -111 -112 -113 -114 -117 -119 -120 -122 -123 -125 -127 -128 -129 -130 -131 -134 -135 -136 -137 -138 -140 -141 -144 -145 -146 -151 -152 -153 -154 -155 -157 -159 -162 -166 -167 -168 -169 -171 -173 -174 -179 -180 -181 -183 -184 -185 -190 -193 -194 -199 0
